(declare-const x0 Real)
(assert (<= 0.002000 x0))
(declare-const x1 Real)
(assert (<= 0.002000 x1))
(declare-const x2 Real)
(assert (<= 0.002000 x2))
(declare-const x3 Real)
(assert (<= 0.002000 x3))
(declare-const x4 Real)
(assert (<= 0.002000 x4))
(declare-const x5 Real)
(assert (<= 0.002000 x5))
(declare-const x6 Real)
(assert (<= 0.002000 x6))
(declare-const x7 Real)
(assert (<= 0.002000 x7))
(declare-const x8 Real)
(assert (<= 0.002000 x8))
(declare-const x9 Real)
(assert (<= 0.002000 x9))
(declare-const x10 Real)
(assert (<= 0.002000 x10))
(declare-const x11 Real)
(assert (<= 0.002000 x11))
(declare-const x12 Real)
(assert (<= 0.002000 x12))
(declare-const x13 Real)
(assert (<= 0.002000 x13))
(declare-const x14 Real)
(assert (<= 0.002000 x14))
(declare-const x15 Real)
(assert (<= 0.002000 x15))
(declare-const x16 Real)
(assert (<= 0.002000 x16))
(declare-const x17 Real)
(assert (<= 0.002000 x17))
(declare-const x18 Real)
(assert (<= 0.002000 x18))
(declare-const x19 Real)
(assert (<= 0.002000 x19))
(declare-const x20 Real)
(assert (<= 0.002000 x20))
(declare-const x21 Real)
(assert (<= 0.002000 x21))
(declare-const x22 Real)
(assert (<= 0.002000 x22))
(declare-const x23 Real)
(assert (<= 0.002000 x23))
(declare-const x24 Real)
(assert (<= 0.002000 x24))
(declare-const x25 Real)
(assert (<= 0.002000 x25))
(declare-const x26 Real)
(assert (<= 0.002000 x26))
(declare-const x27 Real)
(assert (<= 0.002000 x27))
(declare-const x28 Real)
(assert (<= 0.002000 x28))
(declare-const x29 Real)
(assert (<= 0.002000 x29))
(declare-const x30 Real)
(assert (<= 0.002000 x30))
(declare-const x31 Real)
(assert (<= 0.002000 x31))
(declare-const x32 Real)
(assert (<= 0.002000 x32))
(declare-const x33 Real)
(assert (<= 0.002000 x33))
(declare-const x34 Real)
(assert (<= 0.002000 x34))
(declare-const x35 Real)
(assert (<= 0.002000 x35))
(declare-const x36 Real)
(assert (<= 0.002000 x36))
(declare-const x37 Real)
(assert (<= 0.002000 x37))
(declare-const x38 Real)
(assert (<= 0.002000 x38))
(declare-const x39 Real)
(assert (<= 0.002000 x39))
(declare-const x40 Real)
(assert (<= 0.002000 x40))
(declare-const x41 Real)
(assert (<= 0.002000 x41))
(declare-const x42 Real)
(assert (<= 0.002000 x42))
(declare-const x43 Real)
(assert (<= 0.002000 x43))
(declare-const x44 Real)
(assert (<= 0.002000 x44))
(declare-const x45 Real)
(assert (<= 0.002000 x45))
(declare-const x46 Real)
(assert (<= 0.002000 x46))
(declare-const x47 Real)
(assert (<= 0.002000 x47))

(assert (<= (- 1.500000) (- (+ (/ (^ (/ (^ (+ (/ (^ (+ x10 (/ (^ x4 2.0) (+ x4 (* (/ (* (* 1.400000 (^ x16 2.0)) x46) (+ 1.0 x46)) x34)))) 2.0) (+ x10 (/ (^ x4 2.0) (+ x4 (* (/ (* (* 1.400000 (^ x16 2.0)) x46) (+ 1.0 x46)) x34))) (* (/ (* (* 1.600000 (^ x22 2.0)) x46) (+ 1.0 x46)) x40))) (/ (^ (+ x11 (/ (^ x5 2.0) (+ x5 (* (/ (* (* 2.200000 (^ x17 2.0)) x47) (+ 1.0 x47)) x35)))) 2.0) (+ x11 (/ (^ x5 2.0) (+ x5 (* (/ (* (* 2.200000 (^ x17 2.0)) x47) (+ 1.0 x47)) x35))) (* (/ (* (* 2.400000 (^ x23 2.0)) x47) (+ 1.0 x47)) x41)))) 2.0) (+ (/ (^ (+ x10 (/ (^ x4 2.0) (+ x4 (* (/ (* (* 1.400000 (^ x16 2.0)) x46) (+ 1.0 x46)) x34)))) 2.0) (+ x10 (/ (^ x4 2.0) (+ x4 (* (/ (* (* 1.400000 (^ x16 2.0)) x46) (+ 1.0 x46)) x34))) (* (/ (* (* 1.600000 (^ x22 2.0)) x46) (+ 1.0 x46)) x40))) (/ (^ (+ x11 (/ (^ x5 2.0) (+ x5 (* (/ (* (* 2.200000 (^ x17 2.0)) x47) (+ 1.0 x47)) x35)))) 2.0) (+ x11 (/ (^ x5 2.0) (+ x5 (* (/ (* (* 2.200000 (^ x17 2.0)) x47) (+ 1.0 x47)) x35))) (* (/ (* (* 2.400000 (^ x23 2.0)) x47) (+ 1.0 x47)) x41))) (* 1.200000 (^ x26 2.0)))) 2.0) (+ (/ (^ (+ (/ (^ (+ x10 (/ (^ x4 2.0) (+ x4 (* (/ (* (* 1.400000 (^ x16 2.0)) x46) (+ 1.0 x46)) x34)))) 2.0) (+ x10 (/ (^ x4 2.0) (+ x4 (* (/ (* (* 1.400000 (^ x16 2.0)) x46) (+ 1.0 x46)) x34))) (* (/ (* (* 1.600000 (^ x22 2.0)) x46) (+ 1.0 x46)) x40))) (/ (^ (+ x11 (/ (^ x5 2.0) (+ x5 (* (/ (* (* 2.200000 (^ x17 2.0)) x47) (+ 1.0 x47)) x35)))) 2.0) (+ x11 (/ (^ x5 2.0) (+ x5 (* (/ (* (* 2.200000 (^ x17 2.0)) x47) (+ 1.0 x47)) x35))) (* (/ (* (* 2.400000 (^ x23 2.0)) x47) (+ 1.0 x47)) x41)))) 2.0) (+ (/ (^ (+ x10 (/ (^ x4 2.0) (+ x4 (* (/ (* (* 1.400000 (^ x16 2.0)) x46) (+ 1.0 x46)) x34)))) 2.0) (+ x10 (/ (^ x4 2.0) (+ x4 (* (/ (* (* 1.400000 (^ x16 2.0)) x46) (+ 1.0 x46)) x34))) (* (/ (* (* 1.600000 (^ x22 2.0)) x46) (+ 1.0 x46)) x40))) (/ (^ (+ x11 (/ (^ x5 2.0) (+ x5 (* (/ (* (* 2.200000 (^ x17 2.0)) x47) (+ 1.0 x47)) x35)))) 2.0) (+ x11 (/ (^ x5 2.0) (+ x5 (* (/ (* (* 2.200000 (^ x17 2.0)) x47) (+ 1.0 x47)) x35))) (* (/ (* (* 2.400000 (^ x23 2.0)) x47) (+ 1.0 x47)) x41))) (* 1.200000 (^ x26 2.0)))) (* 0.900000 (^ x29 2.0)))) (/ (^ (/ (^ (+ (/ (^ (+ x8 (/ (^ x2 2.0) (+ x2 (* (/ (* (* 2.200000 (^ x14 2.0)) x44) (+ 1.0 x44)) x32)))) 2.0) (+ x8 (/ (^ x2 2.0) (+ x2 (* (/ (* (* 2.200000 (^ x14 2.0)) x44) (+ 1.0 x44)) x32))) (* (/ (* (* 2.200000 (^ x20 2.0)) x44) (+ 1.0 x44)) x38))) (/ (^ (+ x9 (/ (^ x3 2.0) (+ x3 (* (/ (* (* 2.0 (^ x15 2.0)) x45) (+ 1.0 x45)) x33)))) 2.0) (+ x9 (/ (^ x3 2.0) (+ x3 (* (/ (* (* 2.0 (^ x15 2.0)) x45) (+ 1.0 x45)) x33))) (* (/ (* (* 1.800000 (^ x21 2.0)) x45) (+ 1.0 x45)) x39)))) 2.0) (+ (/ (^ (+ x8 (/ (^ x2 2.0) (+ x2 (* (/ (* (* 2.200000 (^ x14 2.0)) x44) (+ 1.0 x44)) x32)))) 2.0) (+ x8 (/ (^ x2 2.0) (+ x2 (* (/ (* (* 2.200000 (^ x14 2.0)) x44) (+ 1.0 x44)) x32))) (* (/ (* (* 2.200000 (^ x20 2.0)) x44) (+ 1.0 x44)) x38))) (/ (^ (+ x9 (/ (^ x3 2.0) (+ x3 (* (/ (* (* 2.0 (^ x15 2.0)) x45) (+ 1.0 x45)) x33)))) 2.0) (+ x9 (/ (^ x3 2.0) (+ x3 (* (/ (* (* 2.0 (^ x15 2.0)) x45) (+ 1.0 x45)) x33))) (* (/ (* (* 1.800000 (^ x21 2.0)) x45) (+ 1.0 x45)) x39))) (* 1.200000 (^ x25 2.0)))) 2.0) (+ (/ (^ (+ (/ (^ (+ x8 (/ (^ x2 2.0) (+ x2 (* (/ (* (* 2.200000 (^ x14 2.0)) x44) (+ 1.0 x44)) x32)))) 2.0) (+ x8 (/ (^ x2 2.0) (+ x2 (* (/ (* (* 2.200000 (^ x14 2.0)) x44) (+ 1.0 x44)) x32))) (* (/ (* (* 2.200000 (^ x20 2.0)) x44) (+ 1.0 x44)) x38))) (/ (^ (+ x9 (/ (^ x3 2.0) (+ x3 (* (/ (* (* 2.0 (^ x15 2.0)) x45) (+ 1.0 x45)) x33)))) 2.0) (+ x9 (/ (^ x3 2.0) (+ x3 (* (/ (* (* 2.0 (^ x15 2.0)) x45) (+ 1.0 x45)) x33))) (* (/ (* (* 1.800000 (^ x21 2.0)) x45) (+ 1.0 x45)) x39)))) 2.0) (+ (/ (^ (+ x8 (/ (^ x2 2.0) (+ x2 (* (/ (* (* 2.200000 (^ x14 2.0)) x44) (+ 1.0 x44)) x32)))) 2.0) (+ x8 (/ (^ x2 2.0) (+ x2 (* (/ (* (* 2.200000 (^ x14 2.0)) x44) (+ 1.0 x44)) x32))) (* (/ (* (* 2.200000 (^ x20 2.0)) x44) (+ 1.0 x44)) x38))) (/ (^ (+ x9 (/ (^ x3 2.0) (+ x3 (* (/ (* (* 2.0 (^ x15 2.0)) x45) (+ 1.0 x45)) x33)))) 2.0) (+ x9 (/ (^ x3 2.0) (+ x3 (* (/ (* (* 2.0 (^ x15 2.0)) x45) (+ 1.0 x45)) x33))) (* (/ (* (* 1.800000 (^ x21 2.0)) x45) (+ 1.0 x45)) x39))) (* 1.200000 (^ x25 2.0)))) (^ x28 2.0))) (/ (^ (/ (^ (+ (/ (^ (+ x6 (/ (^ x0 2.0) (+ x0 (* (/ (* (* 1.800000 (^ x12 2.0)) x42) (+ 1.0 x42)) x30)))) 2.0) (+ x6 (/ (^ x0 2.0) (+ x0 (* (/ (* (* 1.800000 (^ x12 2.0)) x42) (+ 1.0 x42)) x30))) (* (/ (* (* 2.0 (^ x18 2.0)) x42) (+ 1.0 x42)) x36))) (/ (^ (+ x7 (/ (^ x1 2.0) (+ x1 (* (/ (* (* 1.600000 (^ x13 2.0)) x43) (+ 1.0 x43)) x31)))) 2.0) (+ x7 (/ (^ x1 2.0) (+ x1 (* (/ (* (* 1.600000 (^ x13 2.0)) x43) (+ 1.0 x43)) x31))) (* (/ (* (* 2.0 (^ x19 2.0)) x43) (+ 1.0 x43)) x37)))) 2.0) (+ (/ (^ (+ x6 (/ (^ x0 2.0) (+ x0 (* (/ (* (* 1.800000 (^ x12 2.0)) x42) (+ 1.0 x42)) x30)))) 2.0) (+ x6 (/ (^ x0 2.0) (+ x0 (* (/ (* (* 1.800000 (^ x12 2.0)) x42) (+ 1.0 x42)) x30))) (* (/ (* (* 2.0 (^ x18 2.0)) x42) (+ 1.0 x42)) x36))) (/ (^ (+ x7 (/ (^ x1 2.0) (+ x1 (* (/ (* (* 1.600000 (^ x13 2.0)) x43) (+ 1.0 x43)) x31)))) 2.0) (+ x7 (/ (^ x1 2.0) (+ x1 (* (/ (* (* 1.600000 (^ x13 2.0)) x43) (+ 1.0 x43)) x31))) (* (/ (* (* 2.0 (^ x19 2.0)) x43) (+ 1.0 x43)) x37))) (* 0.900000 (^ x24 2.0)))) 2.0) (+ (/ (^ (+ (/ (^ (+ x6 (/ (^ x0 2.0) (+ x0 (* (/ (* (* 1.800000 (^ x12 2.0)) x42) (+ 1.0 x42)) x30)))) 2.0) (+ x6 (/ (^ x0 2.0) (+ x0 (* (/ (* (* 1.800000 (^ x12 2.0)) x42) (+ 1.0 x42)) x30))) (* (/ (* (* 2.0 (^ x18 2.0)) x42) (+ 1.0 x42)) x36))) (/ (^ (+ x7 (/ (^ x1 2.0) (+ x1 (* (/ (* (* 1.600000 (^ x13 2.0)) x43) (+ 1.0 x43)) x31)))) 2.0) (+ x7 (/ (^ x1 2.0) (+ x1 (* (/ (* (* 1.600000 (^ x13 2.0)) x43) (+ 1.0 x43)) x31))) (* (/ (* (* 2.0 (^ x19 2.0)) x43) (+ 1.0 x43)) x37)))) 2.0) (+ (/ (^ (+ x6 (/ (^ x0 2.0) (+ x0 (* (/ (* (* 1.800000 (^ x12 2.0)) x42) (+ 1.0 x42)) x30)))) 2.0) (+ x6 (/ (^ x0 2.0) (+ x0 (* (/ (* (* 1.800000 (^ x12 2.0)) x42) (+ 1.0 x42)) x30))) (* (/ (* (* 2.0 (^ x18 2.0)) x42) (+ 1.0 x42)) x36))) (/ (^ (+ x7 (/ (^ x1 2.0) (+ x1 (* (/ (* (* 1.600000 (^ x13 2.0)) x43) (+ 1.0 x43)) x31)))) 2.0) (+ x7 (/ (^ x1 2.0) (+ x1 (* (/ (* (* 1.600000 (^ x13 2.0)) x43) (+ 1.0 x43)) x31))) (* (/ (* (* 2.0 (^ x19 2.0)) x43) (+ 1.0 x43)) x37))) (* 0.900000 (^ x24 2.0)))) (^ x27 2.0)))))))
(assert (= (+ (* (- 1.0) x0) (* (- 1.0) x1) (* (- 1.0) x2) (* (- 1.0) x3) (* (- 1.0) x4) (* (- 1.0) x5) (* (- 1.0) x6) (* (- 1.0) x7) (* (- 1.0) x8) (* (- 1.0) x9) (* (- 1.0) x10) (* (- 1.0) x11)) (- 12.0)))
(assert (= (+ (* (- 1.0) x30) (* (- 1.0) x31) (* (- 1.0) x32) (* (- 1.0) x33) (* (- 1.0) x34) (* (- 1.0) x35) (* (- 1.0) x36) (* (- 1.0) x37) (* (- 1.0) x38) (* (- 1.0) x39) (* (- 1.0) x40) (* (- 1.0) x41)) (- 12.0)))

(minimize
	(+ (* 0.100000 x42) (* 0.100000 x43) (* 0.100000 x44) (* 0.100000 x45) (* 0.100000 x46) (* 0.100000 x47) (+ (* 0.001000 (+ (* 10.0 (^ (+ (* (- 1.0) x0) 1.0) 2.0)) (* 10.0 (^ (+ (* (- 1.0) x1) 1.0) 2.0)) (* 10.0 (^ (+ (* (- 1.0) x2) 1.0) 2.0)) (* 10.0 (^ (+ (* (- 1.0) x3) 1.0) 2.0)) (* 10.0 (^ (+ (* (- 1.0) x4) 1.0) 2.0)) (* 10.0 (^ (+ (* (- 1.0) x5) 1.0) 2.0)) (* 10.0 (^ (+ (* (- 1.0) x6) 1.0) 2.0)) (* 10.0 (^ (+ (* (- 1.0) x7) 1.0) 2.0)) (* 10.0 (^ (+ (* (- 1.0) x8) 1.0) 2.0)) (* 10.0 (^ (+ (* (- 1.0) x9) 1.0) 2.0)) (* 10.0 (^ (+ (* (- 1.0) x10) 1.0) 2.0)) (* 10.0 (^ (+ (* (- 1.0) x11) 1.0) 2.0)) (* 250.0 (* (* 2.0 (+ (* 1.0 x12) (- 1.0))) (+ (+ (* 1.0 x12) (- 1.0)) (sqrt (+ 0.100000 (^ (+ (* 1.0 x12) (- 1.0)) 2.0)))))) (* 250.0 (* (* 2.0 (+ (* 1.0 x13) (- 1.0))) (+ (+ (* 1.0 x13) (- 1.0)) (sqrt (+ 0.100000 (^ (+ (* 1.0 x13) (- 1.0)) 2.0)))))) (* 250.0 (* (* 2.0 (+ (* 1.0 x14) (- 1.0))) (+ (+ (* 1.0 x14) (- 1.0)) (sqrt (+ 0.100000 (^ (+ (* 1.0 x14) (- 1.0)) 2.0)))))) (* 250.0 (* (* 2.0 (+ (* 1.0 x15) (- 1.0))) (+ (+ (* 1.0 x15) (- 1.0)) (sqrt (+ 0.100000 (^ (+ (* 1.0 x15) (- 1.0)) 2.0)))))) (* 250.0 (* (* 2.0 (+ (* 1.0 x16) (- 1.0))) (+ (+ (* 1.0 x16) (- 1.0)) (sqrt (+ 0.100000 (^ (+ (* 1.0 x16) (- 1.0)) 2.0)))))) (* 250.0 (* (* 2.0 (+ (* 1.0 x17) (- 1.0))) (+ (+ (* 1.0 x17) (- 1.0)) (sqrt (+ 0.100000 (^ (+ (* 1.0 x17) (- 1.0)) 2.0)))))) (* 250.0 (* (* 2.0 (+ (* 1.0 x18) (- 1.0))) (+ (+ (* 1.0 x18) (- 1.0)) (sqrt (+ 0.100000 (^ (+ (* 1.0 x18) (- 1.0)) 2.0)))))) (* 250.0 (* (* 2.0 (+ (* 1.0 x19) (- 1.0))) (+ (+ (* 1.0 x19) (- 1.0)) (sqrt (+ 0.100000 (^ (+ (* 1.0 x19) (- 1.0)) 2.0)))))) (* 250.0 (* (* 2.0 (+ (* 1.0 x20) (- 1.0))) (+ (+ (* 1.0 x20) (- 1.0)) (sqrt (+ 0.100000 (^ (+ (* 1.0 x20) (- 1.0)) 2.0)))))) (* 250.0 (* (* 2.0 (+ (* 1.0 x21) (- 1.0))) (+ (+ (* 1.0 x21) (- 1.0)) (sqrt (+ 0.100000 (^ (+ (* 1.0 x21) (- 1.0)) 2.0)))))) (* 250.0 (* (* 2.0 (+ (* 1.0 x22) (- 1.0))) (+ (+ (* 1.0 x22) (- 1.0)) (sqrt (+ 0.100000 (^ (+ (* 1.0 x22) (- 1.0)) 2.0)))))) (* 250.0 (* (* 2.0 (+ (* 1.0 x23) (- 1.0))) (+ (+ (* 1.0 x23) (- 1.0)) (sqrt (+ 0.100000 (^ (+ (* 1.0 x23) (- 1.0)) 2.0)))))) (* 500.0 (* (* 2.0 (+ (* 1.0 x24) (- 1.0))) (+ (+ (* 1.0 x24) (- 1.0)) (sqrt (+ 0.100000 (^ (+ (* 1.0 x24) (- 1.0)) 2.0)))))) (* 500.0 (* (* 2.0 (+ (* 1.0 x25) (- 1.0))) (+ (+ (* 1.0 x25) (- 1.0)) (sqrt (+ 0.100000 (^ (+ (* 1.0 x25) (- 1.0)) 2.0)))))) (* 500.0 (* (* 2.0 (+ (* 1.0 x26) (- 1.0))) (+ (+ (* 1.0 x26) (- 1.0)) (sqrt (+ 0.100000 (^ (+ (* 1.0 x26) (- 1.0)) 2.0)))))) (* 500.0 (* (* 2.0 (+ (* 1.0 x27) (- 1.0))) (+ (+ (* 1.0 x27) (- 1.0)) (sqrt (+ 0.100000 (^ (+ (* 1.0 x27) (- 1.0)) 2.0)))))) (* 500.0 (* (* 2.0 (+ (* 1.0 x28) (- 1.0))) (+ (+ (* 1.0 x28) (- 1.0)) (sqrt (+ 0.100000 (^ (+ (* 1.0 x28) (- 1.0)) 2.0)))))) (* 500.0 (* (* 2.0 (+ (* 1.0 x29) (- 1.0))) (+ (+ (* 1.0 x29) (- 1.0)) (sqrt (+ 0.100000 (^ (+ (* 1.0 x29) (- 1.0)) 2.0)))))))) 0.600000))
)
(check-sat)
(get-objectives)
(exit)

